gen	cost
1	1449
2	1435
3	1424
4	1420
5	1408
6	1384
7	1380
8	1356
9	1337
10	1336
11	1332
12	1320
13	1311
14	1298
15	1285
16	1273
17	1269
18	1261
19	1247
20	1237
21	1231
22	1226
23	1215
24	1215
25	1215
26	1211
27	1211
28	1206
29	1198
30	1190
31	1185
32	1181
33	1177
34	1177
35	1176
36	1162
37	1160
38	1160
39	1160
40	1157
41	1154
42	1152
43	1149
44	1148
45	1148
46	1148
47	1148
48	1148
49	1145
50	1143

